proyfinal/src/viki/013/experimentInOfficeAgust.take6.output/dec80824-8829-4280-a90b-32172bf5571b.als.out
Reading from standard input... Use '--help' for help.
============================[ Problem Statistics ]=============================
|                                                                             |
|  Number of variables:         87638                                         |
|  Number of clauses:          161767                                         |
|  Parse time:                   0.03 s                                       |
|                                                                             |
============================[ Search Statistics ]==============================
| Conflicts |          ORIGINAL         |          LEARNT          | Progress |
|           |    Vars  Clauses Literals |    Limit  Clauses Lit/Cl |          |
===============================================================================
|       100 |   62690   106315   265617 |    38982       99     24 | 28.467 % |
|       250 |   62668   106179   265316 |    42880      248     37 | 28.492 % |
|       475 |   62668   106179   265316 |    47168      473     71 | 28.492 % |
|       812 |   62668   106179   265316 |    51885      810     69 | 28.492 % |
|      1318 |   62668   106179   265316 |    57073     1316     63 | 28.492 % |
|      2077 |   62668   106179   265316 |    62781     2075     72 | 28.492 % |
|      3216 |   62668   106179   265316 |    69059     3214     84 | 28.492 % |
|      4924 |   62668   106179   265316 |    75965     4922     88 | 28.492 % |
|      7486 |   62627   106011   264925 |    83561     7479     86 | 28.539 % |
|     11330 |   62627   106011   264925 |    91917    11323     85 | 28.539 % |
|     17096 |   62553   105933   264738 |   101109    17085     86 | 28.623 % |
===============================================================================
restarts              : 73
conflicts             : 20831          (6184 /sec)
decisions             : 64605          (0.00 % random) (19178 /sec)
propagations          : 31687975       (9406449 /sec)
conflict literals     : 1776241        (54.41 % deleted)
Memory used           : 38.77 MB
CPU time              : 3.36875 s

INDETERMINATE
